WARNING: for repeatability, setting FPU to use double precision
============================[ Problem Statistics ]=============================
|                                                                             |
|  Number of variables:        229046                                         |
|  Number of clauses:          529277                                         |
|  Parse time:                   0.27 s                                       |
|                                                                             |
============================[ Search Statistics ]==============================
| Conflicts |          ORIGINAL         |          LEARNT          | Progress |
|           |    Vars  Clauses Literals |    Limit  Clauses Lit/Cl |          |
===============================================================================
|       100 |  126360   507151  1139662 |   185955      100     12 | 44.832 % |
|       250 |  126360   507151  1139662 |   204550      250     14 | 44.832 % |
|       475 |  126360   507151  1139662 |   225005      475     22 | 44.832 % |
|       812 |  126360   507151  1139662 |   247506      812     33 | 44.832 % |
===============================================================================
restarts              : 7
conflicts             : 852            (708 /sec)
decisions             : 20536          (0.00 % random) (17055 /sec)
propagations          : 3637483        (3020977 /sec)
conflict literals     : 27554          (3.13 % deleted)
Memory used           : 57.00 MB
CPU time              : 1.20408 s

SATISFIABLE
